345 5
10 10 10 10 10 

0 0 0 0 0 0 5 2 14 26 38 50 
0 0 0 0 0 0 5 3 4 5 7 8 
1 0 0 2 0 0 2 12 6 
9 0 0 8 0 0 2 12 6 
3 0 0 10 0 0 5 12 11 10 9 77 
5 0 0 6 0 0 3 11 10 9 
8 0 0 7 0 0 3 11 10 9 
5 0 0 10 0 0 2 10 9 
9 0 0 10 0 0 1 13 
4 0 0 4 0 0 1 13 
7 0 0 8 0 0 1 13 
5 0 0 10 0 0 1 13 
0 0 0 0 0 0 1 62 
0 0 0 0 0 0 3 15 16 20 
2 0 4 0 0 0 3 19 18 17 
9 0 10 0 0 0 2 19 18 
7 0 5 0 0 0 4 24 23 22 21 
7 0 9 0 0 0 3 24 23 21 
8 0 5 0 0 0 3 24 22 21 
10 0 7 0 0 0 4 23 22 21 133 
4 0 10 0 0 0 1 25 
3 0 5 0 0 0 1 25 
2 0 10 0 0 0 1 25 
8 0 10 0 0 0 1 25 
0 0 0 0 0 0 1 62 
0 0 0 0 0 0 6 27 28 29 34 35 36 
6 0 3 0 0 0 3 33 32 31 
6 0 6 0 0 0 2 33 30 
8 0 9 0 0 0 2 32 31 
6 0 7 0 0 0 1 31 
3 0 9 0 0 0 1 37 
3 0 9 0 0 0 2 37 67 
3 0 10 0 0 0 1 37 
6 0 7 0 0 0 1 37 
2 0 9 0 0 0 1 37 
3 0 6 0 0 0 1 37 
0 0 0 0 0 0 1 62 
0 0 0 0 0 0 4 39 41 42 48 
7 0 0 0 0 3 3 47 46 40 
4 0 0 0 0 3 3 44 43 299 
5 0 0 0 0 10 1 45 
8 0 0 0 0 8 1 43 
2 0 0 0 0 10 1 49 
3 0 0 0 0 9 1 49 
4 0 0 0 0 4 1 49 
3 0 0 0 0 10 1 49 
4 0 0 0 0 8 1 49 
3 0 0 0 0 10 1 49 
0 0 0 0 0 0 1 62 
0 0 0 0 0 0 4 51 52 53 56 
6 0 0 1 0 0 3 59 55 54 
6 0 0 10 0 0 4 60 59 58 57 
2 0 0 8 0 0 3 59 57 55 
9 0 0 10 0 0 2 60 57 
8 0 0 10 0 0 1 58 
7 0 0 5 0 0 1 57 
2 0 0 7 0 0 2 61 174 
2 0 0 10 0 0 1 61 
7 0 0 7 0 0 1 61 
8 0 0 7 0 0 1 61 
0 0 0 0 0 0 1 62 
0 0 0 0 0 0 5 63 75 87 99 111 
0 0 0 0 0 0 6 64 65 66 68 69 228 
2 0 0 5 0 0 2 73 72 
1 0 0 7 0 0 2 72 70 
1 0 0 8 0 0 1 67 
9 0 0 6 0 0 1 70 
5 0 0 6 0 0 1 71 
5 0 0 9 0 0 1 71 
7 0 0 9 0 0 1 74 
1 0 0 5 0 0 1 74 
2 0 0 10 0 0 1 74 
10 0 0 10 0 0 1 74 
0 0 0 0 0 0 1 123 
0 0 0 0 0 0 3 76 77 78 
6 0 3 0 0 0 4 84 82 80 79 
5 0 9 0 0 0 3 85 83 81 
5 0 6 0 0 0 3 85 80 79 
8 0 9 0 0 0 1 83 
9 0 8 0 0 0 1 83 
4 0 8 0 0 0 1 84 
2 0 6 0 0 0 1 83 
4 0 10 0 0 0 1 86 
5 0 10 0 0 0 1 86 
4 0 6 0 0 0 1 86 
0 0 0 0 0 0 1 123 
0 0 0 0 0 0 5 88 89 90 93 97 
5 0 0 0 0 6 3 96 94 91 
4 0 0 0 0 4 2 95 92 
9 0 0 0 0 7 2 95 94 
2 0 0 0 0 10 1 95 
5 0 0 0 0 10 1 94 
8 0 0 0 0 10 1 94 
10 0 0 0 0 4 1 98 
10 0 0 0 0 9 1 98 
6 0 0 0 0 8 1 98 
6 0 0 0 0 7 1 98 
0 0 0 0 0 0 1 123 
0 0 0 0 0 0 3 100 101 102 
2 0 0 0 2 0 4 109 108 104 103 
3 0 0 0 6 0 5 109 108 107 106 104 
6 0 0 0 8 0 2 105 103 
10 0 0 0 8 0 2 107 106 
7 0 0 0 10 0 1 105 
2 0 0 0 10 0 1 110 
3 0 0 0 10 0 1 110 
7 0 0 0 8 0 1 110 
10 0 0 0 6 0 1 110 
8 0 0 0 7 0 1 110 
0 0 0 0 0 0 1 123 
0 0 0 0 0 0 6 112 113 114 116 117 121 
9 0 0 9 0 0 2 119 115 
2 0 0 4 0 0 2 119 118 
5 0 0 10 0 0 1 115 
5 0 0 10 0 0 1 118 
7 0 0 9 0 0 1 120 
1 0 0 5 0 0 1 118 
10 0 0 10 0 0 1 122 
1 0 0 5 0 0 1 122 
9 0 0 6 0 0 1 122 
6 0 0 7 0 0 1 122 
0 0 0 0 0 0 1 123 
0 0 0 0 0 0 5 124 136 148 160 172 
0 0 0 0 0 0 6 125 126 128 132 133 134 
2 3 0 0 0 0 3 131 130 129 
3 7 0 0 0 0 2 129 127 
9 9 0 0 0 0 1 130 
7 6 0 0 0 0 1 129 
6 9 0 0 0 0 1 135 
10 10 0 0 0 0 1 135 
5 9 0 0 0 0 1 135 
7 9 0 0 0 0 1 135 
7 5 0 0 0 0 1 135 
1 8 0 0 0 0 1 135 
0 0 0 0 0 0 1 184 
0 0 0 0 0 0 2 137 138 
9 0 0 2 0 0 3 145 143 139 
4 0 0 6 0 0 3 145 144 140 
6 0 0 10 0 0 4 146 144 142 141 
2 0 0 7 0 0 3 143 142 141 
1 0 0 10 0 0 1 147 
10 0 0 9 0 0 1 147 
1 0 0 6 0 0 1 147 
7 0 0 8 0 0 1 147 
5 0 0 9 0 0 1 147 
5 0 0 8 0 0 1 147 
0 0 0 0 0 0 1 184 
0 0 0 0 0 0 3 149 151 152 
9 5 0 0 0 0 3 157 153 150 
9 6 0 0 0 0 4 158 156 155 154 
3 5 0 0 0 0 4 157 156 155 154 
10 5 0 0 0 0 4 157 156 155 154 
4 10 0 0 0 0 1 154 
9 7 0 0 0 0 1 159 
5 9 0 0 0 0 1 159 
10 8 0 0 0 0 1 159 
6 10 0 0 0 0 1 159 
10 10 0 0 0 0 1 159 
0 0 0 0 0 0 1 184 
0 0 0 0 0 0 8 161 163 164 165 166 168 169 170 
4 2 0 0 0 0 1 162 
10 10 0 0 0 0 1 167 
4 8 0 0 0 0 1 167 
5 5 0 0 0 0 1 167 
3 9 0 0 0 0 1 167 
5 9 0 0 0 0 1 167 
6 5 0 0 0 0 1 171 
4 10 0 0 0 0 1 171 
6 10 0 0 0 0 1 171 
9 7 0 0 0 0 1 171 
0 0 0 0 0 0 1 184 
0 0 0 0 0 0 6 173 174 176 177 181 182 
1 0 0 0 4 0 2 180 175 
6 0 0 0 6 0 1 175 
4 0 0 0 5 0 1 178 
9 0 0 0 4 0 1 179 
3 0 0 0 10 0 1 178 
9 0 0 0 10 0 1 183 
1 0 0 0 6 0 1 183 
8 0 0 0 10 0 1 183 
6 0 0 0 10 0 1 183 
5 0 0 0 10 0 1 183 
0 0 0 0 0 0 1 184 
0 0 0 0 0 0 5 185 197 219 241 263 
0 0 0 0 0 0 4 186 187 188 190 
10 0 0 0 0 6 3 192 191 189 
2 0 0 0 0 4 3 195 194 191 
10 0 0 0 0 8 3 194 192 191 
2 0 0 0 0 7 3 195 194 193 
5 0 0 0 0 6 2 194 191 
4 0 0 0 0 10 1 193 
5 0 0 0 0 7 1 193 
7 0 0 0 0 7 1 196 
1 0 0 0 0 10 1 196 
6 0 0 0 0 10 1 196 
0 0 0 0 0 0 5 285 297 309 321 333 
0 0 0 0 0 0 5 198 199 201 202 203 
9 0 2 0 3 0 3 206 205 204 
4 0 10 0 4 0 2 207 200 
8 0 10 0 6 0 4 212 209 208 206 
3 0 6 0 7 0 4 212 209 208 206 
10 0 3 0 9 0 3 210 208 207 
9 0 9 0 9 0 2 207 206 
3 0 4 0 10 0 3 212 210 208 
6 0 10 0 6 0 3 217 209 208 
1 0 10 0 9 0 4 216 215 211 210 
7 0 7 0 10 0 3 216 212 209 
8 0 9 0 8 0 4 216 215 213 211 
9 0 10 0 10 0 3 215 213 211 
4 0 2 0 10 0 3 217 214 213 
4 0 10 0 5 0 1 214 
1 0 10 0 8 0 1 213 
9 0 10 0 5 0 1 218 
7 0 8 0 10 0 1 218 
5 0 8 0 10 0 1 218 
1 0 6 0 7 0 1 218 
5 0 6 0 4 0 1 218 
0 0 0 0 0 0 1 345 
0 0 0 0 0 0 6 220 221 223 224 225 239 
3 0 0 4 3 0 5 238 237 235 227 222 
6 0 0 4 8 0 6 236 235 233 230 229 227 
6 0 0 9 5 0 4 236 233 229 226 
3 0 0 7 9 0 5 236 235 233 232 227 
8 0 0 10 10 0 5 235 234 233 229 228 
8 0 0 10 7 0 4 236 235 233 227 
7 0 0 7 5 0 3 234 232 228 
3 0 0 8 9 0 1 228 
6 0 0 9 10 0 1 231 
5 0 0 10 6 0 1 232 
8 0 0 5 10 0 1 234 
6 0 0 7 6 0 1 240 
7 0 0 6 9 0 1 240 
4 0 0 5 7 0 1 240 
4 0 0 8 7 0 1 240 
5 0 0 7 9 0 1 240 
5 0 0 10 7 0 1 240 
2 0 0 10 10 0 1 240 
1 0 0 10 4 0 1 240 
5 0 0 4 9 0 1 240 
0 0 0 0 0 0 1 345 
0 0 0 0 0 0 5 242 243 244 245 248 
10 0 4 6 0 0 3 254 247 246 
5 0 7 6 0 0 2 254 246 
7 0 6 5 0 0 6 261 256 254 251 250 249 
8 0 10 8 0 0 3 251 250 247 
10 0 4 7 0 0 5 261 256 251 250 249 
7 0 6 6 0 0 3 261 256 249 
4 0 8 3 0 0 6 261 260 256 255 254 251 
7 0 9 8 0 0 4 259 255 253 252 
2 0 9 10 0 0 4 259 255 253 252 
6 0 10 10 0 0 3 259 258 257 
3 0 6 9 0 0 2 260 257 
9 0 9 6 0 0 2 258 257 
7 0 6 4 0 0 2 258 257 
8 0 10 10 0 0 1 258 
6 0 7 4 0 0 1 257 
10 0 7 9 0 0 1 262 
8 0 5 10 0 0 1 262 
3 0 7 10 0 0 1 262 
7 0 10 9 0 0 1 262 
2 0 10 10 0 0 1 262 
0 0 0 0 0 0 1 345 
0 0 0 0 0 0 6 264 267 270 272 282 283 
7 4 0 0 1 0 2 281 265 
5 10 0 0 9 0 4 280 275 271 266 
7 4 0 0 9 0 3 279 273 269 
2 7 0 0 7 0 2 278 268 
7 8 0 0 9 0 3 275 274 271 
2 6 0 0 9 0 3 277 276 274 
10 2 0 0 7 0 2 278 273 
7 10 0 0 7 0 1 273 
3 10 0 0 7 0 1 278 
1 10 0 0 10 0 1 284 
8 6 0 0 9 0 1 284 
9 10 0 0 5 0 1 284 
1 7 0 0 10 0 1 284 
5 7 0 0 6 0 1 284 
9 7 0 0 8 0 1 284 
6 10 0 0 10 0 1 284 
7 6 0 0 5 0 1 284 
9 10 0 0 8 0 1 284 
6 6 0 0 5 0 1 284 
10 10 0 0 9 0 1 284 
0 0 0 0 0 0 1 345 
0 0 0 0 0 0 5 286 287 288 290 295 
10 2 0 0 0 0 3 292 291 289 
7 6 0 0 0 0 3 293 292 291 
10 10 0 0 0 0 2 294 292 
8 4 0 0 0 0 1 293 
1 8 0 0 0 0 1 291 
2 9 0 0 0 0 1 296 
1 8 0 0 0 0 1 296 
8 10 0 0 0 0 1 296 
5 8 0 0 0 0 1 296 
10 10 0 0 0 0 1 296 
0 0 0 0 0 0 1 345 
0 0 0 0 0 0 6 298 299 301 305 306 307 
8 0 0 1 0 0 2 304 300 
2 0 0 3 0 0 2 303 302 
4 0 0 10 0 0 1 302 
10 0 0 10 0 0 1 302 
10 0 0 9 0 0 1 308 
7 0 0 10 0 0 1 308 
5 0 0 9 0 0 1 308 
1 0 0 8 0 0 1 308 
7 0 0 6 0 0 1 308 
5 0 0 9 0 0 1 308 
0 0 0 0 0 0 1 345 
0 0 0 0 0 0 4 310 311 312 313 
6 0 0 0 0 7 3 316 315 314 
10 0 0 0 0 4 3 316 315 314 
6 0 0 0 0 10 3 316 315 314 
8 0 0 0 0 4 2 316 314 
7 0 0 0 0 10 3 319 318 317 
2 0 0 0 0 10 3 319 318 317 
10 0 0 0 0 9 2 318 317 
4 0 0 0 0 5 1 320 
3 0 0 0 0 6 1 320 
4 0 0 0 0 10 1 320 
0 0 0 0 0 0 1 345 
0 0 0 0 0 0 3 322 324 325 
9 0 0 0 0 6 3 331 330 323 
9 0 0 0 0 5 3 329 327 326 
10 0 0 0 0 6 3 328 327 326 
3 0 0 0 0 8 2 328 326 
3 0 0 0 0 10 1 332 
8 0 0 0 0 10 1 332 
7 0 0 0 0 5 1 332 
4 0 0 0 0 6 1 332 
7 0 0 0 0 9 1 332 
7 0 0 0 0 10 1 332 
0 0 0 0 0 0 1 345 
0 0 0 0 0 0 5 334 335 336 342 343 
7 0 0 0 0 2 3 340 338 337 
4 0 0 0 0 7 3 340 339 338 
10 0 0 0 0 9 2 341 338 
2 0 0 0 0 9 1 339 
1 0 0 0 0 10 1 344 
7 0 0 0 0 7 1 344 
8 0 0 0 0 8 1 344 
3 0 0 0 0 10 1 344 
7 0 0 0 0 5 1 344 
7 0 0 0 0 8 1 344 
0 0 0 0 0 0 1 345 
0 0 0 0 0 0 0 
